; benchmark generated from python API
(set-info :status unknown)
(declare-fun x_epoch () Int)
(declare-fun y_epoch () Int)
(declare-fun x_shift_period_648243_epoch () Int)
(declare-fun x_year () Int)
(declare-fun x_month () Int)
(declare-fun x_day () Int)
(declare-fun x_shift_period_648243_year () Int)
(declare-fun x_shift_period_648243_month () Int)
(declare-fun x_shift_period_648243_day () Int)
(declare-fun x_shift_period_655459_epoch () Int)
(declare-fun x_shift_period_655459_year () Int)
(declare-fun x_shift_period_655459_month () Int)
(declare-fun x_shift_period_655459_day () Int)
(assert
 (>= x_epoch (- 36584)))
(assert
 (<= x_epoch 36829))
(assert
 (>= y_epoch (- 36584)))
(assert
 (<= y_epoch 36829))
(assert
 (>= x_epoch 7244))
(assert
 (<= x_epoch 7276))
(assert
 (>= x_shift_period_648243_epoch (- 36584)))
(assert
 (<= x_shift_period_648243_epoch 36829))
(assert
 (let (($x608 (<= x_year 2100)))
 (let (($x150 (>= x_year 1900)))
 (let (($x632 (= x_month 11)))
 (let (($x221 (= x_month 9)))
 (let (($x292 (= x_month 6)))
 (let (($x735 (= x_month 4)))
 (let ((?x100 (ite (or $x735 $x292 $x221 $x632) 30 31)))
 (let (($x345 (= (mod x_year 4) 0)))
 (let (($x461 (= (mod x_year 100) 0)))
 (let (($x701 (= (mod x_year 400) 0)))
 (let (($x231 (ite $x701 true (ite $x461 false $x345))))
 (let (($x107 (= x_month 2)))
 (let ((?x242 (ite $x107 (ite $x231 29 28) ?x100)))
 (let (($x496 (>= x_day 1)))
 (let (($x321 (<= x_month 12)))
 (let (($x471 (>= x_month 1)))
 (and $x471 $x321 $x496 (<= x_day ?x242) $x150 $x608))))))))))))))))))
(assert
 (let (($x29 (or (and (= (mod 2000 4) 0) (and (distinct (mod 2000 100) 0) true)) (= (mod 2000 400) 0))))
 (let ((?x36 (ite (= 3 2) (ite $x29 31 31) (ite (= 3 1) (ite $x29 0 0) 0))))
 (let ((?x40 (ite $x29 60 59)))
 (let ((?x41 (ite (= 3 3) ?x40 ?x36)))
 (let ((?x46 (ite (= 3 4) (ite $x29 91 90) ?x41)))
 (let ((?x52 (ite (= 3 5) (ite $x29 121 120) ?x46)))
 (let ((?x58 (ite (= 3 6) (ite $x29 152 151) ?x52)))
 (let ((?x64 (ite (= 3 7) (ite $x29 182 181) ?x58)))
 (let ((?x70 (ite (= 3 8) (ite $x29 213 212) ?x64)))
 (let ((?x76 (ite (= 3 9) (ite $x29 244 243) ?x70)))
 (let ((?x82 (ite (= 3 10) (ite $x29 274 273) ?x76)))
 (let ((?x88 (ite (= 3 11) (ite $x29 305 304) ?x82)))
 (let ((?x16 (- (+ (* 365 (- 2000 1)) (div (- 2000 1) 4)) (div (- 2000 1) 100))))
 (let ((?x95 (+ (+ ?x16 (div (- 2000 1) 400)) (ite (= 3 12) (ite $x29 335 334) ?x88))))
 (let ((?x97 (+ ?x95 (- 1 1))))
 (let (($x345 (= (mod x_year 4) 0)))
 (let (($x461 (= (mod x_year 100) 0)))
 (let (($x701 (= (mod x_year 400) 0)))
 (let (($x231 (ite $x701 true (ite $x461 false $x345))))
 (let (($x142 (= 2 x_month)))
 (let ((?x395 (ite $x142 (ite $x231 31 31) (ite (= 1 x_month) (ite $x231 0 0) 0))))
 (let (($x270 (= 3 x_month)))
 (let (($x585 (= 4 x_month)))
 (let ((?x499 (ite $x585 (ite $x231 91 90) (ite $x270 (ite $x231 60 59) ?x395))))
 (let (($x510 (= 5 x_month)))
 (let (($x460 (= 6 x_month)))
 (let ((?x2018 (ite $x460 (ite $x231 152 151) (ite $x510 (ite $x231 121 120) ?x499))))
 (let (($x112 (= 7 x_month)))
 (let (($x601 (= 8 x_month)))
 (let ((?x606 (ite $x601 (ite $x231 213 212) (ite $x112 (ite $x231 182 181) ?x2018))))
 (let (($x659 (= 9 x_month)))
 (let (($x2109 (= 10 x_month)))
 (let ((?x3347 (ite $x2109 (ite $x231 274 273) (ite $x659 (ite $x231 244 243) ?x606))))
 (let (($x1089 (= 11 x_month)))
 (let (($x645 (= 12 x_month)))
 (let ((?x728 (ite $x645 (ite $x231 335 334) (ite $x1089 (ite $x231 305 304) ?x3347))))
 (let ((?x579 (- (+ (* 365 (- x_year 1)) (div (- x_year 1) 4)) (div (- x_year 1) 100))))
 (let ((?x2874 (+ (+ (+ ?x579 (div (- x_year 1) 400)) ?x728) (- x_day 1))))
 (= x_epoch (- ?x2874 ?x97)))))))))))))))))))))))))))))))))))))))))
(assert
 (let (($x3886 (<= x_shift_period_648243_year 2100)))
 (let (($x3890 (>= x_shift_period_648243_year 1900)))
 (let (($x2873 (= x_shift_period_648243_month 11)))
 (let (($x1502 (= x_shift_period_648243_month 9)))
 (let (($x1619 (= x_shift_period_648243_month 6)))
 (let (($x1658 (= x_shift_period_648243_month 4)))
 (let ((?x3216 (ite (or $x1658 $x1619 $x1502 $x2873) 30 31)))
 (let (($x4469 (= (mod x_shift_period_648243_year 4) 0)))
 (let (($x1166 (= (mod x_shift_period_648243_year 100) 0)))
 (let (($x1673 (= (mod x_shift_period_648243_year 400) 0)))
 (let (($x2812 (ite $x1673 true (ite $x1166 false $x4469))))
 (let (($x1941 (= x_shift_period_648243_month 2)))
 (let (($x3450 (>= x_shift_period_648243_day 1)))
 (let (($x3688 (<= x_shift_period_648243_month 12)))
 (let (($x3190 (>= x_shift_period_648243_month 1)))
 (and $x3190 $x3688 $x3450 (<= x_shift_period_648243_day (ite $x1941 (ite $x2812 29 28) ?x3216)) $x3890 $x3886)))))))))))))))))
(assert
 (let (($x29 (or (and (= (mod 2000 4) 0) (and (distinct (mod 2000 100) 0) true)) (= (mod 2000 400) 0))))
 (let ((?x36 (ite (= 3 2) (ite $x29 31 31) (ite (= 3 1) (ite $x29 0 0) 0))))
 (let ((?x40 (ite $x29 60 59)))
 (let ((?x41 (ite (= 3 3) ?x40 ?x36)))
 (let ((?x46 (ite (= 3 4) (ite $x29 91 90) ?x41)))
 (let ((?x52 (ite (= 3 5) (ite $x29 121 120) ?x46)))
 (let ((?x58 (ite (= 3 6) (ite $x29 152 151) ?x52)))
 (let ((?x64 (ite (= 3 7) (ite $x29 182 181) ?x58)))
 (let ((?x70 (ite (= 3 8) (ite $x29 213 212) ?x64)))
 (let ((?x76 (ite (= 3 9) (ite $x29 244 243) ?x70)))
 (let ((?x82 (ite (= 3 10) (ite $x29 274 273) ?x76)))
 (let ((?x88 (ite (= 3 11) (ite $x29 305 304) ?x82)))
 (let ((?x16 (- (+ (* 365 (- 2000 1)) (div (- 2000 1) 4)) (div (- 2000 1) 100))))
 (let ((?x95 (+ (+ ?x16 (div (- 2000 1) 400)) (ite (= 3 12) (ite $x29 335 334) ?x88))))
 (let ((?x97 (+ ?x95 (- 1 1))))
 (let (($x4469 (= (mod x_shift_period_648243_year 4) 0)))
 (let (($x1166 (= (mod x_shift_period_648243_year 100) 0)))
 (let (($x1673 (= (mod x_shift_period_648243_year 400) 0)))
 (let (($x2812 (ite $x1673 true (ite $x1166 false $x4469))))
 (let ((?x4471 (ite (= 1 x_shift_period_648243_month) (ite $x2812 0 0) 0)))
 (let ((?x4002 (ite (= 3 x_shift_period_648243_month) (ite $x2812 60 59) (ite (= 2 x_shift_period_648243_month) (ite $x2812 31 31) ?x4471))))
 (let ((?x846 (ite (= 5 x_shift_period_648243_month) (ite $x2812 121 120) (ite (= 4 x_shift_period_648243_month) (ite $x2812 91 90) ?x4002))))
 (let ((?x4218 (ite (= 7 x_shift_period_648243_month) (ite $x2812 182 181) (ite (= 6 x_shift_period_648243_month) (ite $x2812 152 151) ?x846))))
 (let ((?x2690 (ite (= 9 x_shift_period_648243_month) (ite $x2812 244 243) (ite (= 8 x_shift_period_648243_month) (ite $x2812 213 212) ?x4218))))
 (let ((?x1911 (ite (= 11 x_shift_period_648243_month) (ite $x2812 305 304) (ite (= 10 x_shift_period_648243_month) (ite $x2812 274 273) ?x2690))))
 (let ((?x3896 (+ (* 365 (- x_shift_period_648243_year 1)) (div (- x_shift_period_648243_year 1) 4))))
 (let ((?x1410 (+ (- ?x3896 (div (- x_shift_period_648243_year 1) 100)) (div (- x_shift_period_648243_year 1) 400))))
 (let ((?x3732 (+ ?x1410 (ite (= 12 x_shift_period_648243_month) (ite $x2812 335 334) ?x1911))))
 (= x_shift_period_648243_epoch (- (+ ?x3732 (- x_shift_period_648243_day 1)) ?x97)))))))))))))))))))))))))))))))
(assert
 (let ((?x385 (* 12 x_year)))
 (let ((?x2832 (+ ?x385 (- x_month 1))))
 (let ((?x286 (+ ?x2832 12)))
 (let ((?x2647 (div ?x286 12)))
 (= x_shift_period_648243_year ?x2647))))))
(assert
 (let ((?x2201 (+ (mod (+ (+ (* 12 x_year) (- x_month 1)) 12) 12) 1)))
 (= x_shift_period_648243_month ?x2201)))
(assert
 (let ((?x2201 (+ (mod (+ (+ (* 12 x_year) (- x_month 1)) 12) 12) 1)))
 (let ((?x1164 (ite (or (= ?x2201 4) (= ?x2201 6) (= ?x2201 9) (= ?x2201 11)) 30 31)))
 (let ((?x385 (* 12 x_year)))
 (let ((?x2832 (+ ?x385 (- x_month 1))))
 (let ((?x286 (+ ?x2832 12)))
 (let ((?x2647 (div ?x286 12)))
 (let (($x136 (ite (= (mod ?x2647 400) 0) true (ite (= (mod ?x2647 100) 0) false (= (mod ?x2647 4) 0)))))
 (let ((?x1669 (ite (= ?x2201 2) (ite $x136 29 28) ?x1164)))
 (let ((?x2055 (ite (<= x_day ?x1669) x_day ?x1669)))
 (let (($x632 (= x_month 11)))
 (let (($x221 (= x_month 9)))
 (let (($x292 (= x_month 6)))
 (let (($x735 (= x_month 4)))
 (let ((?x100 (ite (or $x735 $x292 $x221 $x632) 30 31)))
 (let (($x345 (= (mod x_year 4) 0)))
 (let (($x461 (= (mod x_year 100) 0)))
 (let (($x701 (= (mod x_year 400) 0)))
 (let (($x231 (ite $x701 true (ite $x461 false $x345))))
 (let (($x107 (= x_month 2)))
 (let ((?x242 (ite $x107 (ite $x231 29 28) ?x100)))
 (let (($x546 (= x_day ?x242)))
 (let ((?x530 (ite false (ite $x546 ?x1669 ?x2055) ?x2055)))
 (= x_shift_period_648243_day ?x530))))))))))))))))))))))))
(assert
 (= y_epoch x_shift_period_648243_epoch))
(assert
 (>= x_shift_period_655459_epoch (- 36584)))
(assert
 (<= x_shift_period_655459_epoch 36829))
(assert
 (let (($x4090 (<= x_shift_period_655459_year 2100)))
 (let (($x1350 (>= x_shift_period_655459_year 1900)))
 (let (($x3779 (= x_shift_period_655459_month 11)))
 (let (($x1085 (= x_shift_period_655459_month 9)))
 (let (($x3714 (= x_shift_period_655459_month 6)))
 (let (($x3012 (= x_shift_period_655459_month 4)))
 (let ((?x2206 (ite (or $x3012 $x3714 $x1085 $x3779) 30 31)))
 (let (($x3916 (= (mod x_shift_period_655459_year 4) 0)))
 (let (($x3526 (= (mod x_shift_period_655459_year 100) 0)))
 (let (($x3540 (= (mod x_shift_period_655459_year 400) 0)))
 (let (($x4044 (ite $x3540 true (ite $x3526 false $x3916))))
 (let (($x3465 (= x_shift_period_655459_month 2)))
 (let (($x4378 (>= x_shift_period_655459_day 1)))
 (let (($x3560 (<= x_shift_period_655459_month 12)))
 (let (($x279 (>= x_shift_period_655459_month 1)))
 (and $x279 $x3560 $x4378 (<= x_shift_period_655459_day (ite $x3465 (ite $x4044 29 28) ?x2206)) $x1350 $x4090)))))))))))))))))
(assert
 (let (($x29 (or (and (= (mod 2000 4) 0) (and (distinct (mod 2000 100) 0) true)) (= (mod 2000 400) 0))))
 (let ((?x36 (ite (= 3 2) (ite $x29 31 31) (ite (= 3 1) (ite $x29 0 0) 0))))
 (let ((?x40 (ite $x29 60 59)))
 (let ((?x41 (ite (= 3 3) ?x40 ?x36)))
 (let ((?x46 (ite (= 3 4) (ite $x29 91 90) ?x41)))
 (let ((?x52 (ite (= 3 5) (ite $x29 121 120) ?x46)))
 (let ((?x58 (ite (= 3 6) (ite $x29 152 151) ?x52)))
 (let ((?x64 (ite (= 3 7) (ite $x29 182 181) ?x58)))
 (let ((?x70 (ite (= 3 8) (ite $x29 213 212) ?x64)))
 (let ((?x76 (ite (= 3 9) (ite $x29 244 243) ?x70)))
 (let ((?x82 (ite (= 3 10) (ite $x29 274 273) ?x76)))
 (let ((?x88 (ite (= 3 11) (ite $x29 305 304) ?x82)))
 (let ((?x16 (- (+ (* 365 (- 2000 1)) (div (- 2000 1) 4)) (div (- 2000 1) 100))))
 (let ((?x95 (+ (+ ?x16 (div (- 2000 1) 400)) (ite (= 3 12) (ite $x29 335 334) ?x88))))
 (let ((?x97 (+ ?x95 (- 1 1))))
 (let (($x3916 (= (mod x_shift_period_655459_year 4) 0)))
 (let (($x3526 (= (mod x_shift_period_655459_year 100) 0)))
 (let (($x3540 (= (mod x_shift_period_655459_year 400) 0)))
 (let (($x4044 (ite $x3540 true (ite $x3526 false $x3916))))
 (let ((?x3792 (ite (= 1 x_shift_period_655459_month) (ite $x4044 0 0) 0)))
 (let ((?x3583 (ite (= 3 x_shift_period_655459_month) (ite $x4044 60 59) (ite (= 2 x_shift_period_655459_month) (ite $x4044 31 31) ?x3792))))
 (let ((?x2335 (ite (= 5 x_shift_period_655459_month) (ite $x4044 121 120) (ite (= 4 x_shift_period_655459_month) (ite $x4044 91 90) ?x3583))))
 (let ((?x3869 (ite (= 7 x_shift_period_655459_month) (ite $x4044 182 181) (ite (= 6 x_shift_period_655459_month) (ite $x4044 152 151) ?x2335))))
 (let ((?x1827 (ite (= 9 x_shift_period_655459_month) (ite $x4044 244 243) (ite (= 8 x_shift_period_655459_month) (ite $x4044 213 212) ?x3869))))
 (let ((?x3589 (ite (= 11 x_shift_period_655459_month) (ite $x4044 305 304) (ite (= 10 x_shift_period_655459_month) (ite $x4044 274 273) ?x1827))))
 (let ((?x1147 (+ (* 365 (- x_shift_period_655459_year 1)) (div (- x_shift_period_655459_year 1) 4))))
 (let ((?x3711 (+ (- ?x1147 (div (- x_shift_period_655459_year 1) 100)) (div (- x_shift_period_655459_year 1) 400))))
 (let ((?x3661 (+ ?x3711 (ite (= 12 x_shift_period_655459_month) (ite $x4044 335 334) ?x3589))))
 (= x_shift_period_655459_epoch (- (+ ?x3661 (- x_shift_period_655459_day 1)) ?x97)))))))))))))))))))))))))))))))
(assert
 (let ((?x3999 (+ x_epoch 365)))
 (= x_shift_period_655459_epoch ?x3999)))
(assert
 (not (= y_epoch x_shift_period_655459_epoch)))
(check-sat)
